p cnf 92 293
-4 2 0
-4 3 0
-2 -3 4 0
-5 1 0
-5 -4 0
-1 4 5 0
6 -7 -8 0
-6 7 -8 0
6 7 8 0
-6 -7 8 0
12 -10 0
12 11 0
10 -11 -12 0
-13 -9 0
-13 -12 0
9 12 13 0
15 13 0
15 -14 0
-13 14 -15 0
9 12 -16 0
-9 -12 -16 0
9 -12 16 0
-9 12 16 0
16 10 -17 0
-16 -10 -17 0
16 -10 17 0
-16 10 17 0
-15 17 -18 0
15 -17 -18 0
-15 -17 18 0
15 17 18 0
-18 -4 -19 0
18 4 -19 0
-18 4 19 0
18 -4 19 0
20 8 0
20 19 0
-8 -19 -20 0
-5 20 -21 0
5 -20 -21 0
-5 -20 21 0
5 20 21 0
-24 -12 0
-24 -23 0
12 23 24 0
-25 22 0
-25 -24 0
-22 24 25 0
-11 -10 -26 0
11 10 -26 0
-11 10 26 0
11 -10 26 0
27 -22 0
27 -26 0
22 26 -27 0
-28 -25 0
-28 27 0
25 -27 28 0
-29 -14 0
-29 -10 0
14 10 29 0
16 -29 -30 0
-16 29 -30 0
16 29 30 0
-16 -29 30 0
31 -30 0
31 -24 0
30 24 -31 0
-32 28 0
-32 31 0
-28 -31 32 0
21 32 -33 0
-21 -32 -33 0
21 -32 33 0
-21 32 33 0
34 -35 -36 0
-34 35 -36 0
34 35 36 0
-34 -35 36 0
-37 3 0
-37 36 0
-3 -36 37 0
38 10 0
38 26 0
-10 -26 -38 0
-35 -38 -39 0
35 38 -39 0
-35 38 39 0
35 -38 39 0
40 -37 0
40 39 0
37 -39 -40 0
-42 41 0
-42 23 0
-41 -23 42 0
-10 -42 -43 0
10 42 -43 0
-10 42 43 0
10 -42 43 0
44 25 -45 0
-44 -25 -45 0
44 -25 45 0
-44 25 45 0
46 -43 0
46 45 0
43 -45 -46 0
47 40 0
47 46 0
-40 -46 -47 0
-48 26 0
-48 -17 0
-26 17 48 0
-48 34 -49 0
48 -34 -49 0
-48 -34 49 0
48 34 49 0
-42 -14 -50 0
42 14 -50 0
-42 14 50 0
42 -14 50 0
51 49 0
51 -50 0
-49 50 -51 0
-52 -47 0
-52 51 0
47 -51 52 0
-53 22 0
-53 23 0
-22 -23 53 0
-53 11 -54 0
53 -11 -54 0
-53 -11 54 0
53 11 54 0
41 -3 -55 0
-41 3 -55 0
41 3 55 0
-41 -3 55 0
56 54 0
56 55 0
-54 -55 -56 0
-22 2 -57 0
22 -2 -57 0
-22 -2 57 0
22 2 57 0
-58 -24 0
-58 42 0
24 -42 58 0
-60 24 0
-60 59 0
-24 -59 60 0
-61 -58 0
-61 -60 0
58 60 61 0
57 -61 -62 0
-57 61 -62 0
57 61 62 0
-57 -61 62 0
63 -56 0
63 62 0
56 -62 -63 0
64 -44 0
64 9 0
44 -9 -64 0
-65 64 0
-65 -9 0
-64 9 65 0
-66 6 0
-66 65 0
-6 -65 66 0
53 -66 -67 0
-53 66 -67 0
53 66 67 0
-53 -66 67 0
68 53 0
68 -12 0
-53 12 -68 0
-69 -29 0
-69 -15 0
29 15 69 0
70 -68 0
70 -69 0
68 69 -70 0
-71 67 0
-71 70 0
-67 -70 71 0
-72 63 0
-72 -71 0
-63 71 72 0
-73 -52 0
-73 72 0
52 -72 73 0
-74 3 0
-74 -4 0
-3 4 74 0
-16 -23 -75 0
16 23 -75 0
-16 23 75 0
16 -23 75 0
76 74 0
76 -75 0
-74 75 -76 0
-77 14 0
-77 -64 0
-14 64 77 0
-65 -55 -78 0
65 55 -78 0
-65 55 78 0
65 -55 78 0
-79 44 0
-79 26 0
-44 -26 79 0
-38 79 -80 0
38 -79 -80 0
-38 -79 80 0
38 79 80 0
-81 80 0
-81 -55 0
-80 55 81 0
82 12 0
82 2 0
-12 -2 -82 0
-83 -82 0
-83 66 0
82 -66 83 0
-84 81 0
-84 83 0
-81 -83 84 0
-78 84 -85 0
78 -84 -85 0
-78 -84 85 0
78 84 85 0
86 -77 0
86 85 0
77 -85 -86 0
-26 -39 -87 0
26 39 -87 0
-26 39 87 0
26 -39 87 0
-88 -87 0
-88 -53 0
87 53 88 0
86 -88 -89 0
-86 88 -89 0
86 88 89 0
-86 -88 89 0
90 76 0
90 -89 0
-76 89 -90 0
91 -73 0
91 90 0
73 -90 -91 0
-92 33 0
-92 91 0
-33 -91 92 0
2 -45 25 31 -26 14 0
-36 15 -88 0
-60 -10 92 0
16 59 0
70 -1 42 -12 0
-90 41 0
-73 -6 0
74 59 0
-23 -25 -17 0
-36 82 2 52 0
56 -42 5 -43 -26 77 0
62 -61 0
-78 17 -15 31 0
-84 -17 89 0
-39 73 -63 -27 40 47 0
-28 -34 0
-59 42 -36 -22 10 0
-61 -58 -3 0
-14 77 0
10 -75 0
28 49 -57 11 -2 -61 0
-31 8 62 60 -65 0
-11 39 38 0
-78 -24 -1 0
51 3 -86 79 31 74 0
54 -57 -90 0
-28 77 0
24 9 -25 -6 47 0
-24 11 0
-21 23 -57 12 -34 0
-66 91 49 -43 0
-9 60 88 0
-13 2 85 80 36 -76 0
21 45 -82 29 0
-42 76 0
40 -2 0
27 14 0
-22 -60 -38 -41 79 0
92 0
